g9 0 1 0 1 20170614 0 4 0 496	# problem hs070
 4 1 1 0 0	# vars, constraints, objectives, ranges, eqns
 1 1	# nonlinear constraints, objectives
 0 0	# network constraints: nonlinear, linear
 2 4 2	# nonlinear vars in constraints, objectives, both
 0 0 0 1	# linear network variables; functions; arith, flags
 0 0 0 0 0	# discrete variables: binary, integer, nonlinear (b,c,o)
 2 4	# nonzeros in Jacobian, gradients
 0 0	# max name lengths: constraints, variables
 0 0 0 0 20	# common exprs: b,c,o,c1,o1
b
0 1e-05 1
0 1e-05 100
0 1e-05 100
0 1e-05 100
x4
0 0.04
1 2
2 2
3 4
r
2 0
C0
o2
o1
n1
v0
v1
V4 1 2
0 1
o2
o1
n1
v0
v1
V5 0 2
o0
o2
o0
n1
o3
n0.08333333333333333
v3
o2
o2
o2
o2
v0
o5
v4
v3
o39
o3
v3
n6.2832
o5
n2.3422251138581656
o0
n-1
v3
o44
o1
v3
o3
o2
o2
n18
v4
v3
n7.658
o2
o0
n1
o3
n0.08333333333333333
v2
o2
o2
o2
o2
o1
n1
v0
o5
o3
v4
v1
v2
o39
o3
v2
n6.2832
o5
n2.3504831548707235
o0
n-1
v2
o44
o1
v2
o3
o2
o2
n18
v4
v2
o2
n7.658
v1
V6 0 2
o0
o2
o0
n1
o3
n0.08333333333333333
v3
o2
o2
o2
o2
v0
o5
v4
v3
o39
o3
v3
n6.2832
o5
n2.212101496421601
o0
n-1
v3
o44
o1
v3
o3
o2
o2
n17
v4
v3
n7.658
o2
o0
n1
o3
n0.08333333333333333
v2
o2
o2
o2
o2
o1
n1
v0
o5
o3
v4
v1
v2
o39
o3
v2
n6.2832
o5
n2.2199007573779053
o0
n-1
v2
o44
o1
v2
o3
o2
o2
n17
v4
v2
o2
n7.658
v1
V7 0 2
o0
o2
o0
n1
o3
n0.08333333333333333
v3
o2
o2
o2
o2
v0
o5
v4
v3
o39
o3
v3
n6.2832
o5
n2.081977878985036
o0
n-1
v3
o44
o1
v3
o3
o2
o2
n16
v4
v3
n7.658
o2
o0
n1
o3
n0.08333333333333333
v2
o2
o2
o2
o2
o1
n1
v0
o5
o3
v4
v1
v2
o39
o3
v2
n6.2832
o5
n2.0893183598850875
o0
n-1
v2
o44
o1
v2
o3
o2
o2
n16
v4
v2
o2
n7.658
v1
V8 0 2
o0
o2
o0
n1
o3
n0.08333333333333333
v3
o2
o2
o2
o2
v0
o5
v4
v3
o39
o3
v3
n6.2832
o5
n1.951854261548471
o0
n-1
v3
o44
o1
v3
o3
o2
o2
n15
v4
v3
n7.658
o2
o0
n1
o3
n0.08333333333333333
v2
o2
o2
o2
o2
o1
n1
v0
o5
o3
v4
v1
v2
o39
o3
v2
n6.2832
o5
n1.9587359623922693
o0
n-1
v2
o44
o1
v2
o3
o2
o2
n15
v4
v2
o2
n7.658
v1
V9 0 2
o0
o2
o0
n1
o3
n0.08333333333333333
v3
o2
o2
o2
o2
v0
o5
v4
v3
o39
o3
v3
n6.2832
o5
n1.8217306441119063
o0
n-1
v3
o44
o1
v3
o3
o2
o2
n14
v4
v3
n7.658
o2
o0
n1
o3
n0.08333333333333333
v2
o2
o2
o2
o2
o1
n1
v0
o5
o3
v4
v1
v2
o39
o3
v2
n6.2832
o5
n1.8281535648994516
o0
n-1
v2
o44
o1
v2
o3
o2
o2
n14
v4
v2
o2
n7.658
v1
V10 0 2
o0
o2
o0
n1
o3
n0.08333333333333333
v3
o2
o2
o2
o2
v0
o5
v4
v3
o39
o3
v3
n6.2832
o5
n1.6916070266753416
o0
n-1
v3
o44
o1
v3
o3
o2
o2
n13
v4
v3
n7.658
o2
o0
n1
o3
n0.08333333333333333
v2
o2
o2
o2
o2
o1
n1
v0
o5
o3
v4
v1
v2
o39
o3
v2
n6.2832
o5
n1.6975711674066336
o0
n-1
v2
o44
o1
v2
o3
o2
o2
n13
v4
v2
o2
n7.658
v1
V11 0 2
o0
o2
o0
n1
o3
n0.08333333333333333
v3
o2
o2
o2
o2
v0
o5
v4
v3
o39
o3
v3
n6.2832
o5
n1.5614834092387768
o0
n-1
v3
o44
o1
v3
o3
o2
o2
n12
v4
v3
n7.658
o2
o0
n1
o3
n0.08333333333333333
v2
o2
o2
o2
o2
o1
n1
v0
o5
o3
v4
v1
v2
o39
o3
v2
n6.2832
o5
n1.5669887699138156
o0
n-1
v2
o44
o1
v2
o3
o2
o2
n12
v4
v2
o2
n7.658
v1
V12 0 2
o0
o2
o0
n1
o3
n0.08333333333333333
v3
o2
o2
o2
o2
v0
o5
v4
v3
o39
o3
v3
n6.2832
o5
n1.431359791802212
o0
n-1
v3
o44
o1
v3
o3
o2
o2
n11
v4
v3
n7.658
o2
o0
n1
o3
n0.08333333333333333
v2
o2
o2
o2
o2
o1
n1
v0
o5
o3
v4
v1
v2
o39
o3
v2
n6.2832
o5
n1.4364063724209977
o0
n-1
v2
o44
o1
v2
o3
o2
o2
n11
v4
v2
o2
n7.658
v1
V13 0 2
o0
o2
o0
n1
o3
n0.08333333333333333
v3
o2
o2
o2
o2
v0
o5
v4
v3
o39
o3
v3
n6.2832
o5
n1.3012361743656475
o0
n-1
v3
o44
o1
v3
o3
o2
o2
n10
v4
v3
n7.658
o2
o0
n1
o3
n0.08333333333333333
v2
o2
o2
o2
o2
o1
n1
v0
o5
o3
v4
v1
v2
o39
o3
v2
n6.2832
o5
n1.3058239749281797
o0
n-1
v2
o44
o1
v2
o3
o2
o2
n10
v4
v2
o2
n7.658
v1
V14 0 2
o0
o2
o0
n1
o3
n0.08333333333333333
v3
o2
o2
o2
o2
v0
o5
v4
v3
o39
o3
v3
n6.2832
o5
n1.1711125569290828
o0
n-1
v3
o44
o1
v3
o3
o2
o2
n9
v4
v3
n7.658
o2
o0
n1
o3
n0.08333333333333333
v2
o2
o2
o2
o2
o1
n1
v0
o5
o3
v4
v1
v2
o39
o3
v2
n6.2832
o5
n1.1752415774353617
o0
n-1
v2
o44
o1
v2
o3
o2
o2
n9
v4
v2
o2
n7.658
v1
V15 0 2
o0
o2
o0
n1
o3
n0.08333333333333333
v3
o2
o2
o2
o2
v0
o5
v4
v3
o39
o3
v3
n6.2832
o5
n1.040988939492518
o0
n-1
v3
o44
o1
v3
o3
o2
o2
n8
v4
v3
n7.658
o2
o0
n1
o3
n0.08333333333333333
v2
o2
o2
o2
o2
o1
n1
v0
o5
o3
v4
v1
v2
o39
o3
v2
n6.2832
o5
n1.0446591799425438
o0
n-1
v2
o44
o1
v2
o3
o2
o2
n8
v4
v2
o2
n7.658
v1
V16 0 2
o0
o2
o0
n1
o3
n0.08333333333333333
v3
o2
o2
o2
o2
v0
o5
v4
v3
o39
o3
v3
n6.2832
o5
n0.9108653220559532
o0
n-1
v3
o44
o1
v3
o3
o2
o2
n7
v4
v3
n7.658
o2
o0
n1
o3
n0.08333333333333333
v2
o2
o2
o2
o2
o1
n1
v0
o5
o3
v4
v1
v2
o39
o3
v2
n6.2832
o5
n0.9140767824497258
o0
n-1
v2
o44
o1
v2
o3
o2
o2
n7
v4
v2
o2
n7.658
v1
V17 0 2
o0
o2
o0
n1
o3
n0.08333333333333333
v3
o2
o2
o2
o2
v0
o5
v4
v3
o39
o3
v3
n6.2832
o5
n0.7807417046193884
o0
n-1
v3
o44
o1
v3
o3
o2
o2
n6
v4
v3
n7.658
o2
o0
n1
o3
n0.08333333333333333
v2
o2
o2
o2
o2
o1
n1
v0
o5
o3
v4
v1
v2
o39
o3
v2
n6.2832
o5
n0.7834943849569078
o0
n-1
v2
o44
o1
v2
o3
o2
o2
n6
v4
v2
o2
n7.658
v1
V18 0 2
o0
o2
o0
n1
o3
n0.08333333333333333
v3
o2
o2
o2
o2
v0
o5
v4
v3
o39
o3
v3
n6.2832
o5
n0.6506180871828238
o0
n-1
v3
o44
o1
v3
o3
o2
o2
n5
v4
v3
n7.658
o2
o0
n1
o3
n0.08333333333333333
v2
o2
o2
o2
o2
o1
n1
v0
o5
o3
v4
v1
v2
o39
o3
v2
n6.2832
o5
n0.6529119874640898
o0
n-1
v2
o44
o1
v2
o3
o2
o2
n5
v4
v2
o2
n7.658
v1
V19 0 2
o0
o2
o0
n1
o3
n0.08333333333333333
v3
o2
o2
o2
o2
v0
o5
v4
v3
o39
o3
v3
n6.2832
o5
n0.520494469746259
o0
n-1
v3
o44
o1
v3
o3
o2
o2
n4
v4
v3
n7.658
o2
o0
n1
o3
n0.08333333333333333
v2
o2
o2
o2
o2
o1
n1
v0
o5
o3
v4
v1
v2
o39
o3
v2
n6.2832
o5
n0.5223295899712719
o0
n-1
v2
o44
o1
v2
o3
o2
o2
n4
v4
v2
o2
n7.658
v1
V20 0 2
o0
o2
o0
n1
o3
n0.08333333333333333
v3
o2
o2
o2
o2
v0
o5
v4
v3
o39
o3
v3
n6.2832
o5
n0.3903708523096942
o0
n-1
v3
o44
o1
v3
o3
o2
o2
n3
v4
v3
n7.658
o2
o0
n1
o3
n0.08333333333333333
v2
o2
o2
o2
o2
o1
n1
v0
o5
o3
v4
v1
v2
o39
o3
v2
n6.2832
o5
n0.3917471924784539
o0
n-1
v2
o44
o1
v2
o3
o2
o2
n3
v4
v2
o2
n7.658
v1
V21 0 2
o0
o2
o0
n1
o3
n0.08333333333333333
v3
o2
o2
o2
o2
v0
o5
v4
v3
o39
o3
v3
n6.2832
o5
n0.2602472348731295
o0
n-1
v3
o44
o1
v3
o3
o2
o2
n2
v4
v3
n7.658
o2
o0
n1
o3
n0.08333333333333333
v2
o2
o2
o2
o2
o1
n1
v0
o5
o3
v4
v1
v2
o39
o3
v2
n6.2832
o5
n0.26116479498563594
o0
n-1
v2
o44
o1
v2
o3
o2
o2
n2
v4
v2
o2
n7.658
v1
V22 0 2
o0
o2
o0
n1
o3
n0.08333333333333333
v3
o2
o2
o2
o2
v0
o5
v4
v3
o39
o3
v3
n6.2832
o5
n0.13012361743656475
o0
n-1
v3
o44
o1
v3
o3
o2
v4
v3
n7.658
o2
o0
n1
o3
n0.08333333333333333
v2
o2
o2
o2
o2
o1
n1
v0
o5
o3
v4
v1
v2
o39
o3
v2
n6.2832
o5
n0.13058239749281797
o0
n-1
v2
o44
o1
v2
o3
o2
v4
v2
o2
n7.658
v1
V23 0 2
o0
o2
o0
n1
o3
n0.08333333333333333
v3
o2
o2
o2
o2
v0
o5
v4
v3
o39
o3
v3
n6.2832
o5
n0.013012361743656475
o0
n-1
v3
o44
o1
v3
o3
o2
o2
n0.1
v4
v3
n7.658
o2
o0
n1
o3
n0.08333333333333333
v2
o2
o2
o2
o2
o1
n1
v0
o5
o3
v4
v1
v2
o39
o3
v2
n6.2832
o5
n0.013058239749281797
o0
n-1
v2
o44
o1
v2
o3
o2
o2
n0.1
v4
v2
o2
n7.658
v1
O0 0
o54
19
o5
o0
n-0.00189
v23
n2
o5
o0
n-0.1038
v22
n2
o5
o0
n-0.268
v21
n2
o5
o0
n-0.506
v20
n2
o5
o0
n-0.577
v19
n2
o5
o0
n-0.604
v18
n2
o5
o0
n-0.725
v17
n2
o5
o0
n-0.898
v16
n2
o5
o0
n-0.947
v15
n2
o5
o0
n-0.845
v14
n2
o5
o0
n-0.702
v13
n2
o5
o0
n-0.528
v12
n2
o5
o0
n-0.385
v11
n2
o5
o0
n-0.257
v10
n2
o5
o0
n-0.159
v9
n2
o5
o0
n-0.0869
v8
n2
o5
o0
n-0.0453
v7
n2
o5
o0
n-0.01509
v6
n2
o5
o0
n-0.00189
v5
n2
k3
1
2
2
J0 2
0 1
1 0
G0 4
0 0
1 0
2 0
3 0
